 $SYSTEM MEMDDI=400 MWORDS=200 $END
 $CONTRL DFTTYP=B3LYP RUNTYP=OPTIMIZE ICHARG=3 MULT=2 $END
 $STATPT NSTEP=1000 $END
 $BASIS GBASIS=N31 NGAUSS=6 NDFUNC=1 $END
 $DATA
Cluster/6-31G
C1
H          1.0    -3.928    5.356   16.526
C          6.0    -4.407    4.594   17.141
H          1.0    -4.756    3.829   16.448
C          6.0    -3.486    3.808   18.078
H          1.0    -3.992    3.080   18.472
H          1.0    -2.776    3.408   17.552
C          6.0    -2.882    4.599   19.159
N          7.0    -1.808    5.433   18.997
H          1.0    -1.399    5.603   18.260
C          6.0    -1.516    5.933   20.201
H          1.0    -0.823    6.527   20.376
N          7.0    -2.357    5.460   21.111
C          6.0    -3.214    4.631   20.483
H          1.0    -3.911    4.162   20.882
H          1.0    -5.247    5.038   17.675
H          1.0    -6.675    6.495   21.094
C          6.0    -6.626    7.008   22.054
H          1.0    -7.361    6.573   22.732
C          6.0    -5.253    6.847   22.749
H          1.0    -4.551    6.931   22.085
H          1.0    -5.133    7.572   23.382
C          6.0    -5.092    5.553   23.460
N          7.0    -3.852    5.064   23.830
C          6.0    -4.041    3.953   24.514
H          1.0    -3.368    3.418   24.867
N          7.0    -5.338    3.719   24.619
H          1.0    -5.694    3.065   25.049
C          6.0    -6.022    4.686   23.932
H          1.0    -6.943    4.738   23.813
H          1.0    -6.823    8.062   21.860
H          1.0    -5.123   11.614   22.239
C          6.0    -4.360   12.265   21.813
H          1.0    -4.723   13.252   22.101
C          6.0    -2.948   12.165   22.429
H          1.0    -2.331   12.635   21.846
H          1.0    -2.954   12.639   23.276
C          6.0    -2.395   10.764   22.674
O          8.0    -3.127    9.770   22.500
O          8.0    -1.187   10.726   23.071
H          1.0    -4.309   12.212   20.725
H          1.0     2.769    0.379   22.241
C          6.0     2.202    1.044   22.893
H          1.0     2.609    0.965   23.901
C          6.0     2.346    2.470   22.361
H          1.0     3.243    2.788   22.549
H          1.0     2.246    2.458   21.396
C          6.0     1.346    3.443   22.948
N          7.0     1.454    3.948   24.230
H          1.0     2.100    3.781   24.773
C          6.0     0.416    4.727   24.500
H          1.0     0.266    5.180   25.298
N          7.0    -0.367    4.748   23.437
C          6.0     0.191    3.950   22.461
H          1.0    -0.164    3.789   21.617
H          1.0     1.152    0.765   22.979
H          1.0     2.925    7.373   19.733
C          6.0     3.135    7.203   20.789
H          1.0     3.690    8.068   21.152
C          6.0     1.834    7.077   21.585
H          1.0     2.049    6.914   22.517
H          1.0     1.344    6.303   21.267
S         16.0     0.756    8.546   21.475
H          1.0     3.756    6.320   20.941
H          1.0     5.152   13.182   22.128
C          6.0     5.272   13.786   23.028
H          1.0     4.637   14.658   22.870
C          6.0     4.790   13.024   24.263
H          1.0     5.414   12.309   24.465
H          1.0     4.785   13.620   25.028
C          6.0     3.420   12.450   24.070
N          7.0     2.279   13.220   23.993
H          1.0     2.250   14.076   24.071
C          6.0     1.232   12.433   23.779
H          1.0     0.355   12.719   23.660
N          7.0     1.645   11.161   23.762
C          6.0     3.016   11.170   23.923
H          1.0     3.568   10.421   23.929
H          1.0     6.268   14.202   23.180
Zn        30.0    -2.102    5.750   23.205
Zn        30.0     0.495    9.525   23.612
C          6.0    -7.432    4.870   31.738
C          6.0    -6.770    3.816   32.327
C          6.0    -5.435    3.609   32.057
C          6.0    -6.766    5.711   30.883
C          6.0    -4.764    4.450   31.202
C          6.0    -5.416    5.521   30.599
N          7.0    -4.686    6.343   29.744
C          6.0    -5.106    7.453   29.180
N          7.0    -4.458    8.302   28.399
C          6.0    -6.398    8.249   29.259
C          6.0    -3.247    8.328   27.687
C          6.0    -5.536    9.291   28.441
C          6.0    -2.279    7.360   27.899
C          6.0    -3.015    9.305   26.733
C          6.0    -5.218   10.632   29.122
C          6.0    -1.101    7.390   27.189
C          6.0    -1.841    9.340   26.026
C          6.0    -5.369   10.864   30.476
C          6.0    -4.763   11.672   28.338
C          6.0    -0.870    8.385   26.257
C          6.0    -5.065   12.088   31.028
C          6.0    -4.442   12.893   28.884
O          8.0     0.280    8.424   25.577
C          6.0    -4.591   13.104   30.234
C          6.0     1.371    9.131   26.200
H          1.0    -6.017    9.444   27.351
H          1.0    -8.401    5.022   31.932
H          1.0    -7.257    3.203   32.948
H          1.0    -4.953    2.844   32.484
H          1.0    -7.264    6.464   30.462
H          1.0    -3.795    4.291   31.015
H          1.0    -7.263    7.733   28.605
H          1.0    -6.723    8.556   30.371
H          1.0    -2.437    6.636   28.570
H          1.0    -3.713    9.992   26.553
H          1.0    -0.406    6.689   27.350
H          1.0    -1.689   10.057   25.345
H          1.0    -5.704   10.139   31.074
H          1.0    -4.663   11.543   27.355
H          1.0    -5.185   12.236   32.010
H          1.0    -4.104   13.628   28.297
H          1.0    -4.361   13.991   30.633
H          1.0     1.070   10.282   26.366
H          1.0     2.338    9.077   25.492
H          1.0     1.631    8.632   27.261
O          8.0    -1.797    7.649   22.931
H          1.0    -1.257    8.335   22.931
H          1.0    -1.257    6.963   22.931
 $END
