 $SYSTEM MEMDDI=400 MWORDS=200 $END
 $CONTRL DFTTYP=B3LYP RUNTYP=OPTIMIZE ICHARG=2 MULT=2 $END
 $STATPT NSTEP=1000 $END
 $BASIS GBASIS=N31 NGAUSS=6 NDFUNC=1 $END
 $DATA
Cluster/6-31G
C1
H          1.0   -30.418   13.837    0.014
C          6.0   -31.461   14.066   -0.204
H          1.0   -31.512   14.681   -1.103
C          6.0   -32.284   12.804   -0.554
H          1.0   -33.140   13.085   -0.913
H          1.0   -31.824   12.323   -1.260
C          6.0   -32.535   11.852    0.586
N          7.0   -31.609   10.914    0.988
H          1.0   -30.827   10.811    0.646
C          6.0   -32.107   10.198    1.980
H          1.0   -31.668    9.512    2.428
N          7.0   -33.335   10.622    2.228
C          6.0   -33.626   11.661    1.370
H          1.0   -34.422   12.141    1.335
H          1.0   -31.879   14.636    0.626
H          1.0   -34.443   14.325    3.636
C          6.0   -34.837   13.919    4.568
H          1.0   -35.805   14.389    4.741
C          6.0   -35.034   12.400    4.467
H          1.0   -34.238   12.003    4.080
H          1.0   -35.128   12.034    5.360
C          6.0   -36.223   12.003    3.650
N          7.0   -36.387   10.736    3.136
C          6.0   -37.525   10.682    2.467
H          1.0   -37.859    9.937    2.022
N          7.0   -38.108   11.864    2.536
H          1.0   -38.862   12.071    2.177
C          6.0   -37.316   12.708    3.273
H          1.0   -37.496   13.598    3.476
H          1.0   -34.184   14.152    5.409
H          1.0   -32.077   12.331    8.060
C          6.0   -31.132   11.827    8.263
H          1.0   -30.843   12.094    9.280
C          6.0   -31.296   10.294    8.197
H          1.0   -30.460    9.877    8.459
H          1.0   -31.964   10.021    8.845
C          6.0   -31.700    9.771    6.818
O          8.0   -32.186   10.545    5.963
O          8.0   -31.563    8.537    6.617
H          1.0   -30.327   12.168    7.612
H          1.0   -35.171    6.191   -3.445
C          6.0   -35.542    6.326   -2.429
H          1.0   -36.245    5.533   -2.176
C          6.0   -34.353    6.265   -1.473
H          1.0   -34.049    5.346   -1.409
H          1.0   -33.622    6.780   -1.849
C          6.0   -34.644    6.773   -0.100
N          7.0   -35.184    5.976    0.889
H          1.0   -35.395    5.147    0.801
C          6.0   -35.326    6.689    1.993
H          1.0   -35.669    6.380    2.800
N          7.0   -34.896    7.918    1.754
C          6.0   -34.466    7.995    0.452
H          1.0   -34.118    8.746    0.029
H          1.0   -36.086    7.266   -2.338
H          1.0   -29.630    6.463    0.922
C          6.0   -30.502    5.860    1.176
H          1.0   -30.188    5.039    1.821
C          6.0   -31.498    6.751    1.919
H          1.0   -32.293    6.250    2.161
H          1.0   -31.787    7.487    1.357
S         16.0   -30.645    7.372    3.409
H          1.0   -30.950    5.370    0.311
H          1.0   -27.684    2.916    5.711
C          6.0   -27.820    2.496    6.708
H          1.0   -27.316    3.127    7.441
C          6.0   -29.305    2.448    7.092
H          1.0   -29.764    1.820    6.512
H          1.0   -29.389    2.112    7.998
C          6.0   -29.974    3.781    6.999
N          7.0   -30.022    4.653    8.061
H          1.0   -29.690    4.507    8.841
C          6.0   -30.660    5.754    7.694
H          1.0   -30.825    6.492    8.235
N          7.0   -31.022    5.626    6.429
C          6.0   -30.605    4.400    5.970
H          1.0   -30.732    4.059    5.114
H          1.0   -27.393    1.493    6.714
Zn        30.0   -34.834    9.422    3.139
Zn        30.0   -31.821    7.098    5.287
C          6.0   -38.773    4.999    8.820
C          6.0   -37.712    4.135    8.857
C          6.0   -36.438    4.539    8.488
C          6.0   -34.186    4.060    8.256
C          6.0   -33.897    5.394    7.813
C          6.0   -34.898    6.284    7.685
C          6.0   -34.585    7.694    7.229
C          6.0   -36.242    5.852    8.066
C          6.0   -37.329    6.723    8.035
C          6.0   -38.578    6.309    8.402
O          8.0   -35.432    3.625    8.563
O          8.0   -34.024    9.219    5.020
O          8.0   -34.035    6.683    4.736
O          8.0   -36.230    7.948    5.048
P         15.0   -34.653    7.896    5.396
C          6.0   -40.137    4.485    9.245
O          8.0   -33.217    3.312    8.337
C          6.0   -39.711    7.320    8.341
H          1.0   -37.859    3.192    9.156
H          1.0   -32.957    5.660    7.601
H          1.0   -33.667    7.935    7.543
H          1.0   -35.283    8.295    7.619
H          1.0   -37.191    7.669    7.740
H          1.0   -36.691    8.676    5.568
H          1.0   -40.804    5.226    9.165
H          1.0   -40.409    3.722    8.657
H          1.0   -40.097    4.167   10.192
H          1.0   -39.349    8.195    8.020
H          1.0   -40.418    6.997    7.711
H          1.0   -40.111    7.432    9.250
 $END
