 $SYSTEM MEMDDI=400 MWORDS=200 $END
 $CONTRL DFTTYP=B3LYP RUNTYP=OPTIMIZE ICHARG=2 MULT=2 $END
 $STATPT NSTEP=1000 $END
 $BASIS GBASIS=N31 NGAUSS=6 NDFUNC=1 $END
 $DATA
Cluster/6-31G
C1
H          1.0   -30.418   13.837    0.014
C          6.0   -31.461   14.066   -0.204
H          1.0   -31.512   14.681   -1.103
C          6.0   -32.284   12.804   -0.554
H          1.0   -33.140   13.085   -0.913
H          1.0   -31.824   12.323   -1.260
C          6.0   -32.535   11.852    0.586
N          7.0   -31.609   10.914    0.988
H          1.0   -30.827   10.811    0.646
C          6.0   -32.107   10.198    1.980
H          1.0   -31.668    9.512    2.428
N          7.0   -33.335   10.622    2.228
C          6.0   -33.626   11.661    1.370
H          1.0   -34.422   12.141    1.335
H          1.0   -31.879   14.636    0.626
H          1.0   -34.443   14.325    3.636
C          6.0   -34.837   13.919    4.568
H          1.0   -35.805   14.389    4.741
C          6.0   -35.034   12.400    4.467
H          1.0   -34.238   12.003    4.080
H          1.0   -35.128   12.034    5.360
C          6.0   -36.223   12.003    3.650
N          7.0   -36.387   10.736    3.136
C          6.0   -37.525   10.682    2.467
H          1.0   -37.859    9.937    2.022
N          7.0   -38.108   11.864    2.536
H          1.0   -38.862   12.071    2.177
C          6.0   -37.316   12.708    3.273
H          1.0   -37.496   13.598    3.476
H          1.0   -34.184   14.152    5.409
H          1.0   -32.077   12.331    8.060
C          6.0   -31.132   11.827    8.263
H          1.0   -30.843   12.094    9.280
C          6.0   -31.296   10.294    8.197
H          1.0   -30.460    9.877    8.459
H          1.0   -31.964   10.021    8.845
C          6.0   -31.700    9.771    6.818
O          8.0   -32.186   10.545    5.963
O          8.0   -31.563    8.537    6.617
H          1.0   -30.327   12.168    7.612
H          1.0   -35.171    6.191   -3.445
C          6.0   -35.542    6.326   -2.429
H          1.0   -36.245    5.533   -2.176
C          6.0   -34.353    6.265   -1.473
H          1.0   -34.049    5.346   -1.409
H          1.0   -33.622    6.780   -1.849
C          6.0   -34.644    6.773   -0.100
N          7.0   -35.184    5.976    0.889
H          1.0   -35.395    5.147    0.801
C          6.0   -35.326    6.689    1.993
H          1.0   -35.669    6.380    2.800
N          7.0   -34.896    7.918    1.754
C          6.0   -34.466    7.995    0.452
H          1.0   -34.118    8.746    0.029
H          1.0   -36.086    7.266   -2.338
H          1.0   -29.630    6.463    0.922
C          6.0   -30.502    5.860    1.176
H          1.0   -30.188    5.039    1.821
C          6.0   -31.498    6.751    1.919
H          1.0   -32.293    6.250    2.161
H          1.0   -31.787    7.487    1.357
S         16.0   -30.645    7.372    3.409
H          1.0   -30.950    5.370    0.311
H          1.0   -27.684    2.916    5.711
C          6.0   -27.820    2.496    6.708
H          1.0   -27.316    3.127    7.441
C          6.0   -29.305    2.448    7.092
H          1.0   -29.764    1.820    6.512
H          1.0   -29.389    2.112    7.998
C          6.0   -29.974    3.781    6.999
N          7.0   -30.022    4.653    8.061
H          1.0   -29.690    4.507    8.841
C          6.0   -30.660    5.754    7.694
H          1.0   -30.825    6.492    8.235
N          7.0   -31.022    5.626    6.429
C          6.0   -30.605    4.400    5.970
H          1.0   -30.732    4.059    5.114
H          1.0   -27.393    1.493    6.714
Zn        30.0   -34.834    9.422    3.139
Zn        30.0   -31.821    7.098    5.287
C          6.0   -35.336    2.964    8.679
C          6.0   -36.507    3.660    8.802
C          6.0   -36.590    4.991    8.423
C          6.0   -37.864    6.901    8.129
C          6.0   -36.747    7.624    7.591
C          6.0   -35.545    7.024    7.504
C          6.0   -34.371    7.782    6.919
C          6.0   -35.455    5.623    7.916
C          6.0   -34.270    4.899    7.795
C          6.0   -34.207    3.587    8.172
O          8.0   -37.789    5.619    8.562
O          8.0   -35.779    8.166    4.596
O          8.0   -33.298    8.761    4.592
O          8.0   -34.027    6.316    4.627
P         15.0   -34.385    7.826    5.075
O          8.0   -38.918    7.527    8.184
C          6.0   -32.906    2.826    8.023
H          1.0   -35.294    2.004    8.956
H          1.0   -37.316    3.201    9.170
H          1.0   -36.861    8.568    7.283
H          1.0   -33.525    7.345    7.223
H          1.0   -34.438    8.727    7.239
H          1.0   -33.454    5.346    7.427
H          1.0   -34.590    5.648    5.126
H          1.0   -32.213    3.436    7.639
H          1.0   -32.604    2.495    8.918
H          1.0   -33.041    2.043    7.416
 $END
