%Chk=vim2_small_opt.chk
# Opt=Restart geom=vim2_small_opt.chk
%Mem=12000MB
%NProcShared=8
# B3LYP/6-31G* Geom=PrintInputOrient Integral=(Grid=UltraFine) Opt
 
CLR
 
2  2
H         -30.418   13.837    0.014
C         -31.461   14.066   -0.204
H         -31.512   14.681   -1.103
C         -32.284   12.804   -0.554
H         -33.140   13.085   -0.913
H         -31.824   12.323   -1.260
C         -32.535   11.852    0.586
N         -31.609   10.914    0.988
H         -30.827   10.811    0.646
C         -32.107   10.198    1.980
H         -31.668    9.512    2.428
N         -33.335   10.622    2.228
C         -33.626   11.661    1.370
H         -34.422   12.141    1.335
H         -31.879   14.636    0.626
H         -34.443   14.325    3.636
C         -34.837   13.919    4.568
H         -35.805   14.389    4.741
C         -35.034   12.400    4.467
H         -34.238   12.003    4.080
H         -35.128   12.034    5.360
C         -36.223   12.003    3.650
N         -36.387   10.736    3.136
C         -37.525   10.682    2.467
H         -37.859    9.937    2.022
N         -38.108   11.864    2.536
H         -38.862   12.071    2.177
C         -37.316   12.708    3.273
H         -37.496   13.598    3.476
H         -34.184   14.152    5.409
H         -32.077   12.331    8.060
C         -31.132   11.827    8.263
H         -30.843   12.094    9.280
C         -31.296   10.294    8.197
H         -30.460    9.877    8.459
H         -31.964   10.021    8.845
C         -31.700    9.771    6.818
O         -32.186   10.545    5.963
O         -31.563    8.537    6.617
H         -30.327   12.168    7.612
H         -35.171    6.191   -3.445
C         -35.542    6.326   -2.429
H         -36.245    5.533   -2.176
C         -34.353    6.265   -1.473
H         -34.049    5.346   -1.409
H         -33.622    6.780   -1.849
C         -34.644    6.773   -0.100
N         -35.184    5.976    0.889
H         -35.395    5.147    0.801
C         -35.326    6.689    1.993
H         -35.669    6.380    2.800
N         -34.896    7.918    1.754
C         -34.466    7.995    0.452
H         -34.118    8.746    0.029
H         -36.086    7.266   -2.338
H         -29.630    6.463    0.922
C         -30.502    5.860    1.176
H         -30.188    5.039    1.821
C         -31.498    6.751    1.919
H         -32.293    6.250    2.161
H         -31.787    7.487    1.357
S         -30.645    7.372    3.409
H         -30.950    5.370    0.311
H         -27.684    2.916    5.711
C         -27.820    2.496    6.708
H         -27.316    3.127    7.441
C         -29.305    2.448    7.092
H         -29.764    1.820    6.512
H         -29.389    2.112    7.998
C         -29.974    3.781    6.999
N         -30.022    4.653    8.061
H         -29.690    4.507    8.841
C         -30.660    5.754    7.694
H         -30.825    6.492    8.235
N         -31.022    5.626    6.429
C         -30.605    4.400    5.970
H         -30.732    4.059    5.114
H         -27.393    1.493    6.714
Zn        -34.834    9.422    3.139
Zn        -31.821    7.098    5.287
C         -34.220    3.393    8.083
C         -33.874    4.740    8.102
C         -34.884    5.693    8.127
C         -34.646    7.058    7.483
C         -36.192    5.293    8.463
C         -37.204    6.225    8.768
C         -38.480    5.782    9.094
C         -38.759    4.419    9.121
C         -37.763    3.500    8.821
C         -36.469    3.947    8.490
F         -36.936    7.562    8.743
F         -40.013    3.986    9.441
O         -33.376    2.569    7.963
O         -34.636    8.347    5.043
O         -33.470    6.176    5.147
O         -35.934    6.255    5.179
O         -35.508    3.020    8.200
P         -34.673    6.954    5.625
H         -35.360    7.690    7.785
H         -33.756    7.407    7.777
H         -32.913    5.018    8.098
H         -39.199    6.443    9.309
H         -37.964    2.521    8.840
H         -36.745    6.820    5.366
 
 
