 $SYSTEM MEMDDI=400 MWORDS=200 $END
 $CONTRL DFTTYP=B3LYP RUNTYP=OPTIMIZE ICHARG=0 MULT=2 $END
 $STATPT NSTEP=1000 $END
 $BASIS GBASIS=N31 NGAUSS=6 NDFUNC=1 $END
 $DATA
Cluster/6-31G
C1
H          1.0    20.919   12.432    0.021
C          6.0    19.866   12.643   -0.166
H          1.0    19.759   13.270   -1.051
C          6.0    19.074   11.366   -0.507
H          1.0    18.228   11.624   -0.905
H          1.0    19.564   10.868   -1.180
C          6.0    18.800   10.459    0.653
N          7.0    19.692    9.495    1.073
H          1.0    20.467    9.351    0.729
C          6.0    19.169    8.826    2.087
H          1.0    19.580    8.133    2.552
N          7.0    17.963    9.309    2.327
C          6.0    17.703   10.323    1.437
H          1.0    16.920   10.823    1.383
H          1.0    19.470   13.189    0.690
H          1.0    16.865   12.833    3.751
C          6.0    16.445   12.452    4.682
H          1.0    15.471   12.915    4.842
C          6.0    16.233   10.941    4.595
H          1.0    17.014   10.534    4.189
H          1.0    16.158   10.579    5.492
C          6.0    15.018   10.558    3.810
N          7.0    14.871    9.323    3.215
C          6.0    13.709    9.274    2.587
H          1.0    13.377    8.546    2.112
N          7.0    13.099   10.434    2.749
H          1.0    12.327   10.641    2.431
C          6.0    13.897   11.256    3.507
H          1.0    13.704   12.129    3.764
H          1.0    17.080   12.719    5.526
H          1.0    19.235   10.937    8.152
C          6.0    20.167   10.401    8.331
H          1.0    20.469   10.629    9.353
C          6.0    19.953    8.888    8.196
H          1.0    20.779    8.430    8.416
H          1.0    19.289    8.603    8.843
C          6.0    19.507    8.467    6.809
O          8.0    18.981    9.311    6.056
O          8.0    19.673    7.272    6.484
H          1.0    20.978   10.733    7.683
H          1.0    16.014    4.777   -3.326
C          6.0    15.664    4.941   -2.307
H          1.0    14.949    4.156   -2.059
C          6.0    16.841    4.869   -1.333
H          1.0    17.152    3.952   -1.283
H          1.0    17.574    5.398   -1.685
C          6.0    16.517    5.347    0.047
N          7.0    15.978    4.524    1.012
H          1.0    15.787    3.692    0.906
C          6.0    15.801    5.213    2.126
H          1.0    15.449    4.882    2.920
N          7.0    16.210    6.452    1.919
C          6.0    16.662    6.563    0.627
H          1.0    17.004    7.329    0.225
H          1.0    15.152    5.899   -2.217
H          1.0    21.576    4.962    1.140
C          6.0    20.691    4.376    1.387
H          1.0    21.007    3.557    2.034
C          6.0    19.689    5.262    2.123
H          1.0    18.921    4.733    2.390
H          1.0    19.364    5.953    1.525
S         16.0    20.440    6.024    3.583
H          1.0    20.232    3.907    0.517
H          1.0    23.641    1.415    5.801
C          6.0    23.590    0.994    6.805
H          1.0    24.184    1.617    7.474
C          6.0    22.151    0.982    7.335
H          1.0    21.649    0.297    6.867
H          1.0    22.163    0.734    8.273
C          6.0    21.440    2.291    7.188
N          7.0    21.380    3.222    8.202
H          1.0    21.736    3.134    8.980
C          6.0    20.690    4.272    7.791
H          1.0    20.511    5.035    8.291
N          7.0    20.299    4.053    6.549
C          6.0    20.754    2.822    6.148
H          1.0    20.617    2.426    5.318
H          1.0    23.986   -0.021    6.784
Zn        30.0    16.351    8.061    3.180
Zn        30.0    19.384    5.620    5.331
C          6.0    15.359   -1.003    9.002
C          6.0    16.555   -0.377    8.726
C          6.0    16.554    0.981    8.470
C          6.0    14.200   -0.248    9.015
C          6.0    14.215    1.142    8.751
C          6.0    15.391    1.833    8.465
C          6.0    15.263    3.250    8.216
C          6.0    16.330    4.296    7.863
C          6.0    13.985    3.794    8.282
C          6.0    12.875    3.023    8.574
N          7.0    13.011    1.737    8.799
O          8.0    17.348    3.159    5.540
O          8.0    17.318    5.622    5.622
O          8.0    15.229    4.356    5.322
O          8.0    11.803    3.524    8.622
P         15.0    16.571    4.366    6.010
Br        35.0    15.338   -2.906    9.368
Br        35.0    18.217    1.906    8.084
H          1.0    16.039    5.193    8.196
H          1.0    17.195    4.051    8.302
H          1.0    17.409   -0.897    8.711
H          1.0    13.329   -0.696    9.216
H          1.0    13.865    4.772    8.113
H          1.0    12.202    1.189    9.011
O          8.0    16.659    7.501    5.172
H          1.0    16.239    6.932    4.719
 $END
