 $SYSTEM MEMDDI=400 MWORDS=200 $END
 $CONTRL DFTTYP=B3LYP RUNTYP=OPTIMIZE ICHARG=2 MULT=2 $END
 $STATPT NSTEP=1000 $END
 $BASIS GBASIS=N31 NGAUSS=6 NDFUNC=1 $END
 $DATA
Cluster/6-31G
C1
H          1.0    20.919   12.432    0.021
C          6.0    19.866   12.643   -0.166
H          1.0    19.470   13.189    0.690
C          6.0    19.074   11.366   -0.507
C          6.0    18.800   10.459    0.653
N          7.0    19.692    9.495    1.073
C          6.0    17.703   10.323    1.437
C          6.0    19.169    8.826    2.087
N          7.0    17.963    9.309    2.327
H          1.0    18.198   11.640   -0.903
H          1.0    19.592   10.850   -1.189
H          1.0    16.862   10.860    1.379
H          1.0    19.611    8.081    2.587
H          1.0    19.759   13.271   -1.051
H          1.0    20.593    9.328    0.673
H          1.0    16.865   12.833    3.751
C          6.0    16.445   12.452    4.682
H          1.0    17.080   12.719    5.526
C          6.0    16.233   10.941    4.595
C          6.0    15.018   10.558    3.810
N          7.0    14.871    9.323    3.215
C          6.0    13.897   11.256    3.507
C          6.0    13.709    9.274    2.587
N          7.0    13.099   10.434    2.749
H          1.0    17.036   10.531    4.162
H          1.0    16.142   10.577    5.522
H          1.0    13.689   12.194    3.784
H          1.0    13.352    8.492    2.076
H          1.0    12.201   10.675    2.380
H          1.0    15.471   12.915    4.842
H          1.0    19.235   10.937    8.152
C          6.0    20.167   10.401    8.331
H          1.0    20.978   10.733    7.683
C          6.0    19.953    8.888    8.196
C          6.0    19.507    8.467    6.809
O          8.0    18.981    9.311    6.056
O          8.0    19.673    7.272    6.484
H          1.0    20.813    8.424    8.410
H          1.0    19.257    8.603    8.855
H          1.0    20.469   10.629    9.353
H          1.0    16.014    4.777   -3.326
C          6.0    15.664    4.941   -2.307
H          1.0    15.152    5.899   -2.217
C          6.0    16.841    4.869   -1.333
C          6.0    16.517    5.347    0.047
N          7.0    15.978    4.524    1.012
C          6.0    16.662    6.563    0.627
C          6.0    15.801    5.213    2.126
N          7.0    16.210    6.452    1.919
H          1.0    17.146    3.918   -1.276
H          1.0    17.587    5.429   -1.695
H          1.0    17.029    7.387    0.195
H          1.0    15.422    4.857    2.980
H          1.0    14.949    4.156   -2.060
H          1.0    15.756    3.557    0.889
H          1.0    21.576    4.962    1.140
C          6.0    20.691    4.376    1.387
H          1.0    20.232    3.907    0.517
C          6.0    19.689    5.262    2.123
S         16.0    20.440    6.024    3.583
H          1.0    19.370    5.980    1.504
H          1.0    18.907    4.708    2.408
H          1.0    21.006    3.557    2.034
H          1.0    23.641    1.415    5.801
C          6.0    23.590    0.994    6.805
H          1.0    23.986   -0.021    6.784
C          6.0    22.151    0.982    7.335
C          6.0    21.440    2.291    7.188
N          7.0    21.380    3.222    8.202
C          6.0    20.754    2.822    6.148
C          6.0    20.690    4.272    7.791
N          7.0    20.299    4.053    6.549
H          1.0    21.636    0.284    6.837
H          1.0    22.172    0.741    8.305
H          1.0    20.607    2.397    5.255
H          1.0    20.497    5.092    8.329
H          1.0    24.184    1.616    7.474
H          1.0    21.793    3.119    9.107
Zn        30.0    16.351    8.061    3.180
Zn        30.0    19.384    5.620    5.331
C          6.0    15.359   -1.003    9.002
C          6.0    16.555   -0.377    8.726
C          6.0    16.554    0.981    8.470
C          6.0    14.200   -0.248    9.015
C          6.0    14.215    1.142    8.751
C          6.0    15.391    1.833    8.465
C          6.0    15.263    3.250    8.216
C          6.0    16.330    4.296    7.863
C          6.0    13.985    3.794    8.282
C          6.0    12.875    3.023    8.574
N          7.0    13.011    1.737    8.799
O          8.0    17.348    3.159    5.540
O          8.0    17.318    5.622    5.622
O          8.0    15.229    4.356    5.322
O          8.0    11.803    3.524    8.622
P         15.0    16.571    4.366    6.010
Br        35.0    15.338   -2.906    9.368
Br        35.0    18.217    1.906    8.084
H          1.0    16.039    5.193    8.196
H          1.0    17.195    4.051    8.302
H          1.0    17.409   -0.897    8.711
H          1.0    13.329   -0.696    9.216
H          1.0    13.865    4.772    8.113
H          1.0    12.202    1.189    9.011
H          1.0    18.271    5.589    5.944
O          8.0    16.659    7.501    5.172
H          1.0    15.983    8.169    5.294
H          1.0    17.520    7.987    5.322
 $END
